(set-info :source  loris-7.ddns.comp.nus.edu.sg/~project/hip/) 
;Variables declarations
(declare-fun r_9904 () Int)
(declare-fun tmp_9896 () Int)
(declare-fun l_9901 () Int)
(declare-fun v_9900 () Int)
(declare-fun v_int_144_9892 () Int)
(declare-fun color_primed () Int)
(declare-fun color () Int)
(declare-fun c () Int)
(declare-fun b () Int)
(declare-fun a_primed () Int)
(declare-fun a () Int)
(declare-fun ha () Int)
(declare-fun na () Int)
(declare-fun flted_136_9865 () Int)
(declare-fun color_144_9881 () Int)
(declare-fun flted_12_9854 () Int)
(declare-fun v_int_145_9894 () Int)
(declare-fun v_int_147_9895 () Int)
(declare-fun res () Int)
(declare-fun v_node_147_4593_primed () Int)
(declare-fun v_10006 () Int)
(declare-fun v_int_145_9893 () Int)
(declare-fun l_10007 () Int)
(declare-fun b_primed () Int)
(declare-fun r_10011 () Int)
(declare-fun c_primed () Int)
(declare-fun nb () Int)
(declare-fun Anon_10009 () Int)
(declare-fun Anon_19 () Int)
(declare-fun ha_9862 () Int)
(declare-fun nc () Int)
(declare-fun Anon_10013 () Int)
(declare-fun flted_136_9864 () Int)
(declare-fun ha_9863 () Int)
(declare-fun bhr_10014 () Int)
(declare-fun bhr_9906 () Int)
(declare-fun bhl_10010 () Int)
(declare-fun nr_9905 () Int)
(declare-fun nr_10012 () Int)
(declare-fun nl_10008 () Int)
(declare-fun v_10040 () Int)
(declare-fun v_9855 () Int)
(declare-fun l_10041 () Int)
(declare-fun l_9856 () Int)
(declare-fun r_10045 () Int)
(declare-fun r_9859 () Int)
(declare-fun nl_9857 () Int)
(declare-fun Anon_10043 () Int)
(declare-fun flted_12_9853 () Int)
(declare-fun bhl_9858 () Int)
(declare-fun nr_9860 () Int)
(declare-fun Anon_10047 () Int)
(declare-fun flted_12_9852 () Int)
(declare-fun bhr_9861 () Int)
(declare-fun bhr_10048 () Int)
(declare-fun bhl_9903 () Int)
(declare-fun bhl_10044 () Int)
(declare-fun nl_9902 () Int)
(declare-fun nr_10046 () Int)
(declare-fun nl_10042 () Int)
;Relations declarations
;Axioms assertions
;Antecedent
(assert (= r_9904 tmp_9896))
(assert (= l_9901 a_primed))
(assert (= v_9900 v_int_147_9895))
(assert (= v_int_144_9892 0))
(assert (= ha_9863 ha))
(assert (= ha_9862 ha))
(assert (= color 0))
(assert (= flted_136_9864 0))
(assert (= color_primed color))
(assert (= c_primed c))
(assert (= b_primed b))
(assert (= a_primed a))
(assert (= bhr_9861 ha))
(assert (= bhl_9858 ha))
(assert (= na (+ (+ nr_9860 1) nl_9857)))
(assert (= flted_136_9865 1))
(assert (= flted_12_9852 0))
(assert (= flted_12_9853 0))
(assert (= flted_12_9854 1))
(assert (= color_144_9881 flted_12_9854))
(assert (= v_int_145_9893 0))
(assert (= v_int_145_9894 0))
(assert (= v_int_147_9895 0))
(assert (= res v_node_147_4593_primed))
(assert (= v_10006 v_int_145_9893))
(assert (= l_10007 b_primed))
(assert (= r_10011 c_primed))
(assert (= nl_10008 nb))
(assert (= Anon_10009 Anon_19))
(assert (= bhl_10010 ha_9862))
(assert (= nr_10012 nc))
(assert (= Anon_10013 flted_136_9864))
(assert (= bhr_10014 ha_9863))
(assert (= bhl_10010 bhr_10014))
(assert (= bhr_9906 (+ bhl_10010 1)))
(assert (= nr_9905 (+ (+ nr_10012 1) nl_10008)))
(assert (= v_10040 v_9855))
(assert (= l_10041 l_9856))
(assert (= r_10045 r_9859))
(assert (= nl_10042 nl_9857))
(assert (= Anon_10043 flted_12_9853))
(assert (= bhl_10044 bhl_9858))
(assert (= nr_10046 nr_9860))
(assert (= Anon_10047 flted_12_9852))
(assert (= bhr_10048 bhr_9861))
(assert (= bhl_10044 bhr_10048))
(assert (= bhl_9903 (+ bhl_10044 1)))
(assert (= nl_9902 (+ (+ nr_10046 1) nl_10042)))
;Negation of Consequence
(assert (not false))
(check-sat)